NAME 
ROWS
 N  OBJ
 L  R0      
 E  R1      
 E  R2      
 E  R3      
 E  R4      
 E  R5      
 E  R6      
 E  R7      
 E  R8      
 E  R9      
 E  R10     
 E  R11     
 E  R12     
 E  R13     
 E  R14     
 E  R15     
 E  R16     
 E  R17     
 E  R18     
 E  R19     
 E  R20     
 E  R21     
 E  R22     
 E  R23     
 E  R24     
 E  R25     
 E  R26     
 E  R27     
 E  R28     
 E  R29     
 E  R30     
 E  R31     
 E  R32     
 E  R33     
 E  R34     
 E  R35     
 E  R36     
 E  R37     
 E  R38     
 E  R39     
 E  R40     
COLUMNS
    MARKER    'MARKER'                 'INTORG'
    I0(3)     OBJ       154
    I0(3)     R0        -156
    I0(3)     R1        -1
    I0(3)     R40       1
    I1(3)     OBJ       54
    I1(3)     R0        183
    I1(3)     R2        13
    I1(3)     R40       1
    I2(3)     OBJ       84
    I2(3)     R0        168
    I2(3)     R3        8
    I2(3)     R40       1
    I3(2)     OBJ       152
    I3(2)     R4        1
    I3(2)     R40       1
    I4(3)     OBJ       193
    I4(3)     R0        21
    I4(3)     R5        -1
    I4(3)     R40       1
    I5(3)     OBJ       57
    I5(3)     R0        92
    I5(3)     R6        10
    I5(3)     R40       1
    I6(3)     OBJ       -68
    I6(3)     R0        28
    I6(3)     R7        17
    I6(3)     R40       1
    I7(3)     OBJ       -59
    I7(3)     R0        42
    I7(3)     R8        14
    I7(3)     R40       1
    I8(2)     OBJ       82
    I8(2)     R0        153
    I8(2)     R40       1
    I9(3)     OBJ       -188
    I9(3)     R0        -171
    I9(3)     R10       11
    I9(3)     R40       1
    I10(3)    OBJ       65
    I10(3)    R0        -6
    I10(3)    R11       12
    I10(3)    R40       1
    I11(3)    OBJ       18
    I11(3)    R0        172
    I11(3)    R12       3
    I11(3)    R40       1
    I12(3)    OBJ       46
    I12(3)    R0        37
    I12(3)    R13       2
    I12(3)    R40       1
    I13(3)    OBJ       67
    I13(3)    R0        -81
    I13(3)    R14       8
    I13(3)    R40       1
    I14(3)    OBJ       105
    I14(3)    R0        -14
    I14(3)    R15       15
    I14(3)    R40       1
    I15(3)    OBJ       11
    I15(3)    R0        -65
    I15(3)    R16       12
    I15(3)    R40       1
    I16(3)    OBJ       111
    I16(3)    R0        -99
    I16(3)    R17       12
    I16(3)    R40       1
    I17(3)    OBJ       73
    I17(3)    R0        118
    I17(3)    R18       6
    I17(3)    R40       1
    I18(2)    OBJ       -26
    I18(2)    R0        184
    I18(2)    R40       1
    I19(3)    OBJ       -181
    I19(3)    R0        -184
    I19(3)    R20       12
    I19(3)    R40       1
    I20(2)    OBJ       -36
    I20(2)    R0        -21
    I20(2)    R40       1
    I21(3)    OBJ       -189
    I21(3)    R0        135
    I21(3)    R22       10
    I21(3)    R40       1
    I22(3)    OBJ       7
    I22(3)    R0        149
    I22(3)    R23       12
    I22(3)    R40       1
    I23(3)    OBJ       -17
    I23(3)    R0        34
    I23(3)    R24       18
    I23(3)    R40       1
    I24(3)    OBJ       39
    I24(3)    R0        70
    I24(3)    R25       5
    I24(3)    R40       1
    I25(3)    OBJ       149
    I25(3)    R0        -181
    I25(3)    R26       1
    I25(3)    R40       1
    I26(3)    OBJ       -164
    I26(3)    R0        34
    I26(3)    R27       19
    I26(3)    R40       1
    I27(3)    OBJ       -48
    I27(3)    R0        -87
    I27(3)    R28       15
    I27(3)    R40       1
    I28(3)    OBJ       -85
    I28(3)    R0        -76
    I28(3)    R29       7
    I28(3)    R40       1
    I29(3)    OBJ       158
    I29(3)    R0        -45
    I29(3)    R30       18
    I29(3)    R40       1
    I30(3)    OBJ       163
    I30(3)    R0        118
    I30(3)    R31       6
    I30(3)    R40       1
    I31(3)    OBJ       -158
    I31(3)    R0        -179
    I31(3)    R32       9
    I31(3)    R40       1
    I32(3)    OBJ       -70
    I32(3)    R0        41
    I32(3)    R33       17
    I32(3)    R40       1
    I33(3)    OBJ       149
    I33(3)    R0        -195
    I33(3)    R34       17
    I33(3)    R40       1
    I34(3)    OBJ       161
    I34(3)    R0        -76
    I34(3)    R35       7
    I34(3)    R40       1
    I35(3)    OBJ       -178
    I35(3)    R0        -2
    I35(3)    R36       9
    I35(3)    R40       1
    I36(3)    OBJ       144
    I36(3)    R0        100
    I36(3)    R37       19
    I36(3)    R40       1
    I37(2)    OBJ       -98
    I37(2)    R0        -157
    I37(2)    R40       1
    MARKER    'MARKER'                 'INTEND'
    C38(37)   OBJ       9
    C38(37)   R0        -5
    C38(37)   R2        3
    C38(37)   R3        14
    C38(37)   R4        6
    C38(37)   R5        7
    C38(37)   R6        18
    C38(37)   R7        16
    C38(37)   R8        2
    C38(37)   R9        8
    C38(37)   R10       13
    C38(37)   R11       3
    C38(37)   R12       16
    C38(37)   R13       10
    C38(37)   R14       10
    C38(37)   R15       6
    C38(37)   R16       1
    C38(37)   R17       15
    C38(37)   R18       11
    C38(37)   R19       17
    C38(37)   R20       5
    C38(37)   R21       8
    C38(37)   R22       8
    C38(37)   R23       4
    C38(37)   R24       5
    C38(37)   R25       -1
    C38(37)   R26       18
    C38(37)   R27       1
    C38(37)   R28       7
    C38(37)   R29       14
    C38(37)   R30       4
    C38(37)   R31       10
    C38(37)   R32       1
    C38(37)   R33       11
    C38(37)   R35       -1
    C38(37)   R36       14
    C38(37)   R37       13
    C38(37)   R39       12
    C39(38)   OBJ       6
    C39(38)   R0        8
    C39(38)   R1        15
    C39(38)   R2        15
    C39(38)   R3        18
    C39(38)   R4        9
    C39(38)   R5        17
    C39(38)   R6        7
    C39(38)   R7        17
    C39(38)   R8        9
    C39(38)   R9        16
    C39(38)   R10       4
    C39(38)   R12       16
    C39(38)   R13       15
    C39(38)   R14       18
    C39(38)   R15       2
    C39(38)   R17       -1
    C39(38)   R18       11
    C39(38)   R19       5
    C39(38)   R20       16
    C39(38)   R21       15
    C39(38)   R22       18
    C39(38)   R23       7
    C39(38)   R24       5
    C39(38)   R25       13
    C39(38)   R26       15
    C39(38)   R27       7
    C39(38)   R28       16
    C39(38)   R29       -1
    C39(38)   R30       17
    C39(38)   R31       13
    C39(38)   R32       2
    C39(38)   R33       15
    C39(38)   R34       19
    C39(38)   R35       10
    C39(38)   R36       5
    C39(38)   R37       12
    C39(38)   R38       4
    C39(38)   R39       18
    C40(1)    R1        1
    C41(1)    R2        1
    C42(1)    R3        1
    C43(1)    R4        1
    C44(1)    R5        1
    C45(1)    R6        1
    C46(1)    R7        1
    C47(1)    R8        1
    C48(1)    R9        1
    C49(1)    R10       1
    C50(1)    R11       1
    C51(1)    R12       1
    C52(1)    R13       1
    C53(1)    R14       1
    C54(1)    R15       1
    C55(1)    R16       1
    C56(1)    R17       1
    C57(1)    R18       1
    C58(1)    R19       1
    C59(1)    R20       1
    C60(1)    R21       1
    C61(1)    R22       1
    C62(1)    R23       1
    C63(1)    R24       1
    C64(1)    R25       1
    C65(1)    R26       1
    C66(1)    R27       1
    C67(1)    R28       1
    C68(1)    R29       1
    C69(1)    R30       1
    C70(1)    R31       1
    C71(1)    R32       1
    C72(1)    R33       1
    C73(1)    R34       1
    C74(1)    R35       1
    C75(1)    R36       1
    C76(1)    R37       1
    C77(1)    R38       1
    C78(1)    R39       1
    C79(1)    R40       1
RHS
    RHS1      R0        -576
    RHS1      R1        70
    RHS1      R2        62
    RHS1      R3        80
    RHS1      R4        51
    RHS1      R5        93
    RHS1      R6        90
    RHS1      R7        84
    RHS1      R8        95
    RHS1      R9        69
    RHS1      R10       89
    RHS1      R11       70
    RHS1      R12       59
    RHS1      R13       90
    RHS1      R14       80
    RHS1      R15       92
    RHS1      R16       85
    RHS1      R17       75
    RHS1      R18       80
    RHS1      R19       66
    RHS1      R20       82
    RHS1      R21       70
    RHS1      R22       72
    RHS1      R23       71
    RHS1      R24       74
    RHS1      R25       80
    RHS1      R26       93
    RHS1      R27       59
    RHS1      R28       90
    RHS1      R29       64
    RHS1      R30       78
    RHS1      R31       59
    RHS1      R32       82
    RHS1      R33       53
    RHS1      R34       84
    RHS1      R35       54
    RHS1      R36       81
    RHS1      R37       74
    RHS1      R38       88
    RHS1      R39       96
    RHS1      R40       12
BOUNDS
 UP BND1      I0(3)     1
 UP BND1      I1(3)     1
 UP BND1      I2(3)     1
 UP BND1      I3(2)     1
 UP BND1      I4(3)     1
 UP BND1      I5(3)     1
 UP BND1      I6(3)     1
 UP BND1      I7(3)     1
 UP BND1      I8(2)     1
 UP BND1      I9(3)     1
 UP BND1      I10(3)    1
 UP BND1      I11(3)    1
 UP BND1      I12(3)    1
 UP BND1      I13(3)    1
 UP BND1      I14(3)    1
 UP BND1      I15(3)    1
 UP BND1      I16(3)    1
 UP BND1      I17(3)    1
 UP BND1      I18(2)    1
 UP BND1      I19(3)    1
 UP BND1      I20(2)    1
 UP BND1      I21(3)    1
 UP BND1      I22(3)    1
 UP BND1      I23(3)    1
 UP BND1      I24(3)    1
 UP BND1      I25(3)    1
 UP BND1      I26(3)    1
 UP BND1      I27(3)    1
 UP BND1      I28(3)    1
 UP BND1      I29(3)    1
 UP BND1      I30(3)    1
 UP BND1      I31(3)    1
 UP BND1      I32(3)    1
 UP BND1      I33(3)    1
 UP BND1      I34(3)    1
 UP BND1      I35(3)    1
 UP BND1      I36(3)    1
 UP BND1      I37(2)    1
ENDATA
